; QF_LIA benchmark: linear_17
(set-logic QF_LIA)
(declare-fun x () Int)
(declare-fun y () Int)
(assert (= (+ (* 10 x) (* 5 y)) 51))
(assert (>= x 0))
(assert (>= y 0))
(assert (<= x 47))
(check-sat)
(exit)
